nNurses = 198;
nHours = 38;
minHours = 3;
maxHours = 9;
maxConsec = 9;
maxPresence = 32;
demand = [12, 11, 10, 12, 13, 18, 17, 22, 26, 21, 20, 16, 13, 13, 10, 10, 11, 9, 6, 10, 15, 10, 15, 10, 14, 16, 11, 15, 18, 21, 18, 17, 19, 21, 22, 24, 21, 20];
